(set-info :smt-lib-version 2.6)
(set-logic QF_S)
(set-info :source |
Generated by: Joel Day, Thorsten Ehlers, Mitja Kulczynski, Federico Mora, Florin Manea, Dirk Nowotka, Danny Poulsen, Zhengyang Lu
Application: Test WOORPJE
Target solver: WOORPJE
Publications: Day, J. D., Ehlers, T., Kulczynski, M., Manea, F., Nowotka, D., & Poulsen, D. B. (2019). On solving word equations using SAT. In RP 2019
Description: Consisting of a system of 100 small random word equations with at most 6 letters, 10 variables and length 60.
|)
(set-info :license "https://creativecommons.org/licenses/by/4.0/")
(set-info :category "random")
(set-info :status unknown)

(declare-fun C () String)
(declare-fun A () String)
(assert (= (str.++  "bbadbd" A "caccbcbaaacbdcdaad" C "cdcd")  (str.++  "bbadbdccdaccaccbcbaaacbdcdaadcaacbbcaaadbdadcaccbdbbdadcdcd" "") ))
(assert (= (str.++  "aaaddccacbcadcaabaaacdcaacbdddccaccabca" A "dbdcbcdaadbdccc")  (str.++  "aaaddccacbcadcaabaaacdcaacbdddccaccabcaccdacdbdcbcdaadbdccc" "") ))
(assert (= (str.++  "dcabaaccdbaddccbdcbccaacadadadccbdcaaacadbaabaccdaccdaaadcd" "")  (str.++  "dcabaaccdbaddccbdcbccaacadadadccbdcaaacadbaaba" A "cdaaadcd") ))
(assert (= (str.++  "abaaddabdbbbadbcddcbb" A "ddaddddbcdddbccabadbdcadcbbdbbaaa")  (str.++  "abaaddabdbbbadbcddcbb" A "ddaddddbcdddbccabadbdcadcbbdbbaaa") ))
(assert (= (str.++  "bdbab" A "dcacdcbcdacaabbbdadaaaabadcddcbbadbacabbddbbcdcba")  (str.++  "bdbabccdacdcacdcbcdacaabbbdadaaaabadcddcbbadbacabbddbbcdcba" "") ))
(assert (= (str.++  "acbddbbaabdddbabdcdadacacbaadbdbbccaaccdacdbaaaaccdbdddbaaa" "")  (str.++  "acbddbbaabdddbabdcdadacacbaadbdbbccaa" A "dbaaaaccdbdddbaaa") ))
(assert (= (str.++  "acdcaddbdcabba" A "bcdbcbcbcdbbcccacaabbacddabbdbddcdbddcbc")  (str.++  "acdcaddbdcabbaccdacbcdbcbcbcdbbcccacaabbacddabbdbddcdbddcbc" "") ))
(assert (= (str.++  "dbddcadacdbbbdbacaabccdbcb" A "ccaaddbaccdcaabcbcddacbadcbc")  (str.++  "dbddcadacdbbbdbacaabccdbcbccdacccaaddbaccdcaabcbcddacbadcbc" "") ))
(assert (= (str.++  "cbacdaaaddbaaabdaddcbbdcdcdbbaccddbbaccdacbbccbddabacabaaad" "")  (str.++  "cbacdaaaddbaaabdaddcbbdcdcdbbaccddbba" A "bbccbddabacabaaad") ))
(assert (= (str.++  "badab" A "baaabbcccacdccdadddabddbaabcdbcaaccccabbdccbabdda")  (str.++  "badabccdacbaaabbcccacdccdadddabddbaabcdbcaaccccabbdccbabdda" "") ))
(assert (= (str.++  "cbbdbbbbddaacdd" A "bccdadcdccaccdbbdbaccaddcabcbbbcbbcabcc")  (str.++  "cbbdbbbbddaacddccdacbccdadcdccaccdbbdbaccaddcabcbbbcbbcabcc" "") ))
(assert (= (str.++  "acaacdcbadbbccdaadbabcccbdadaccdacaabbcbbcabdcbbbadbacadaca" "")  (str.++  "acaacdcbadbbccdaadbabcccbdada" A "aabbcbbcabdcbbbadbacadaca") ))
(assert (= (str.++  "dddcaabdaabdccccbcdddbbdbabdccbacddacbdbbabdaa" A "adcdadcb")  (str.++  "dddcaabdaabdccccbcdddbbdbabdccbacddacbdbbabdaa" A "adcdadcb") ))
(assert (= (str.++  "bcdcadbbbaaacdddbcccbbbdadabcdacdaa" A "abadbacbabacbacadab")  (str.++  "bcdcadbbbaaacdddbcccbbbdadabcdacdaa" A "abadbacbabacbacadab") ))
(assert (= (str.++  "cdaababacdbcdcdccabaaadabadaddbacbbdbbbbc" A "dbbbaabccaabb")  (str.++  "cdaababacdbcdcdccabaaadabadaddbacbbdbbbbcccdacdbbbaabccaabb" "") ))
(assert (= (str.++  "acbddcaabdbddbbbaaabdaabbacabaabbaccadbddaccbdacccbcab" A)  (str.++  "acbddcaabdbddbbbaaabdaabbacabaabbaccadbddaccbdacccbcab" A) ))
(assert (= (str.++  "cbcadcadaacadaddbcccaaabcbdbdabbddaccdcabcdddbdb" A "acacdd")  (str.++  "cbcadcadaacadaddbcccaaabcbdbdabbddaccdcabcdddbdbccdacacacdd" "") ))
(assert (= (str.++  "adbbccbacdccbabcbbadcccabcbcccbbdcbccdacacbcadadbdacdcaaacd" "")  (str.++  "adbbccbacdccbabcbbadcccabcbcccbbdcb" A "acbcadadbdacdcaaacd") ))
(assert (= (str.++  "abbccdaccdbdadcbcccbadbbdbdccabcbbbaaccddbacaaaadabdbdbdccb" "")  (str.++  "abb" A "cdbdadcbcccbadbbdbdccabcbbbaaccddbacaaaadabdbdbdccb") ))
(assert (= (str.++  "cddddcdabadabccccdbcbdacdcbbaaabcadacbad" A "bdabdacdaaccdc")  (str.++  "cddddcdabadabccccdbcbdacdcbbaaabcadacbad" A "bdabdacdaaccdc") ))
(check-sat)

(exit)
